Route #1: 29 63 40 31 17 69 105 64 94 57
Route #2: 74 99 11 34 72 82 96
Route #3: 13 2 83 77 67 85 54 21
Route #4: 104 1 53 87 60 51 100 45
Route #5: 76 43 97 93 28 103 101 5
Route #6: 14 58 88 91 36 8 48 49
Route #7: 7 75 84 9 12 15 44
Route #8: 52 92 102 24 90 26 62
Route #9: 22 33
Route #10: 66 46 71 79 37 27 19 78
Route #11: 86 18 41 10 16 20 56
Route #12: 35 73 32 3 23 42 30 89 59
Route #13: 55 98 4 70 6 81 50 39
Route #14: 25 47 61 80 65 38 95 68
Cost 26386
